presolving:
(round 1, fast)       200 del vars, 400 del conss, 0 add conss, 19653 chg bounds, 0 chg sides, 484 chg coeffs, 0 upgd conss, 0 impls, 100 clqs
(round 2, fast)       300 del vars, 400 del conss, 0 add conss, 19653 chg bounds, 0 chg sides, 484 chg coeffs, 0 upgd conss, 0 impls, 100 clqs
   (0.2s) running MILP presolver
   (0.2s) MILP presolver (2 rounds): 100 aggregations, 100 fixings, 26 bound changes
(round 3, medium)     500 del vars, 400 del conss, 0 add conss, 19679 chg bounds, 0 chg sides, 484 chg coeffs, 0 upgd conss, 0 impls, 0 clqs
(round 4, fast)       500 del vars, 500 del conss, 0 add conss, 19679 chg bounds, 0 chg sides, 484 chg coeffs, 0 upgd conss, 0 impls, 0 clqs
(round 5, exhaustive) 500 del vars, 500 del conss, 0 add conss, 19679 chg bounds, 0 chg sides, 484 chg coeffs, 10011 upgd conss, 0 impls, 0 clqs
   (0.4s) probing: 51/100 (51.0%) - 0 fixings, 0 aggregations, 0 implications, 0 bound changes
   (0.4s) probing aborted: 50/50 successive totally useless probings
   (0.6s) symmetry computation started: requiring (bin +, int -, cont +), (fixed: bin -, int +, cont -)
   (0.6s) no symmetry present
presolving (6 rounds: 6 fast, 3 medium, 2 exhaustive):
 500 deleted vars, 500 deleted constraints, 0 added constraints, 19679 tightened bounds, 0 added holes, 0 changed sides, 484 changed coefficients
 10000 implications, 0 cliques
presolved problem has 10100 variables (100 bin, 0 int, 0 impl, 10000 cont) and 10211 constraints
  10000 constraints of type <varbound>
      6 constraints of type <knapsack>
    200 constraints of type <linear>
      5 constraints of type <logicor>
Presolving Time: 0.54

 time | node  | left  |LP iter|LP it/n|mem/heur|mdpt |vars |cons |rows |cuts |sepa|confs|strbr|  dualbound   | primalbound  |  gap   | compl. 
p 0.7s|     1 |     0 |   113 |     - |   locks|   0 |  10k|  10k|  10k|   0 |  0 |   0 |   0 |-2.959603e+01 | 1.009127e+05 |    Inf | unknown
i 0.7s|     1 |     0 |   113 |     - |  oneopt|   0 |  10k|  10k|  10k|   0 |  0 |   0 |   0 |-2.959603e+01 | 6.319599e+04 |    Inf | unknown
  1.4s|     1 |     0 |  1844 |     - |   107M |   0 |  10k|  10k|  10k|   0 |  0 |   0 |   0 | 1.918040e+04 | 6.319599e+04 | 229.48%| unknown
r 1.5s|     1 |     0 |  1844 |     - |rounding|   0 |  10k|  10k|  10k|   0 |  0 |   0 |   0 | 1.918040e+04 | 2.391248e+04 |  24.67%| unknown
  2.0s|     1 |     0 |  2485 |     - |   111M |   0 |  10k|  10k|  10k|   3 |  1 |   0 |   0 | 1.922843e+04 | 2.391248e+04 |  24.36%| unknown
r 2.0s|     1 |     0 |  2485 |     - |shifting|   0 |  10k|  10k|  10k|   3 |  1 |   0 |   0 | 1.922843e+04 | 2.327669e+04 |  21.05%| unknown
  2.2s|     1 |     0 |  2605 |     - |   112M |   0 |  10k|  10k|  10k|   6 |  3 |   0 |   0 | 1.923301e+04 | 2.327669e+04 |  21.02%| unknown
  2.3s|     1 |     0 |  2664 |     - |   113M |   0 |  10k|  10k|  10k|   7 |  4 |   0 |   0 | 1.923388e+04 | 2.327669e+04 |  21.02%| unknown
  2.4s|     1 |     0 |  2757 |     - |   114M |   0 |  10k|  10k|  10k|   9 |  5 |   0 |   0 | 1.923668e+04 | 2.327669e+04 |  21.00%| unknown
  2.5s|     1 |     0 |  2782 |     - |   117M |   0 |  10k|  10k|  10k|  11 |  6 |   0 |   0 | 1.923719e+04 | 2.327669e+04 |  21.00%| unknown
  2.6s|     1 |     0 |  2809 |     - |   118M |   0 |  10k|  10k|  10k|  15 |  7 |   0 |   0 | 1.923765e+04 | 2.327669e+04 |  21.00%| unknown
  2.8s|     1 |     0 |  2853 |     - |   119M |   0 |  10k|  10k|  10k|  17 |  8 |   0 |   0 | 1.923851e+04 | 2.327669e+04 |  20.99%| unknown
  3.1s|     1 |     0 |  3019 |     - |   120M |   0 |  10k|  10k|  10k|  22 |  9 |   0 |   0 | 1.924134e+04 | 2.327669e+04 |  20.97%| unknown
  3.2s|     1 |     0 |  3088 |     - |   122M |   0 |  10k|  10k|  10k|  23 | 10 |   0 |   0 | 1.924309e+04 | 2.327669e+04 |  20.96%| unknown
  3.5s|     1 |     0 |  3169 |     - |   123M |   0 |  10k|  10k|  10k|  27 | 11 |   0 |   0 | 1.924461e+04 | 2.327669e+04 |  20.95%| unknown
 time | node  | left  |LP iter|LP it/n|mem/heur|mdpt |vars |cons |rows |cuts |sepa|confs|strbr|  dualbound   | primalbound  |  gap   | compl. 
r 3.5s|     1 |     0 |  3169 |     - |shifting|   0 |  10k|  10k|  10k|  27 | 11 |   0 |   0 | 1.924461e+04 | 2.302726e+04 |  19.66%| unknown
  3.6s|     1 |     0 |  3210 |     - |   124M |   0 |  10k|  10k|  10k|  29 | 12 |   0 |   0 | 1.924530e+04 | 2.302726e+04 |  19.65%| unknown
  3.8s|     1 |     0 |  3270 |     - |   126M |   0 |  10k|  10k|  10k|  33 | 13 |   0 |   0 | 1.924584e+04 | 2.302726e+04 |  19.65%| unknown
  3.9s|     1 |     0 |  3334 |     - |   127M |   0 |  10k|  10k|  10k|  36 | 14 |   0 |   0 | 1.924664e+04 | 2.302726e+04 |  19.64%| unknown
  4.2s|     1 |     0 |  3434 |     - |   129M |   0 |  10k|  10k|  10k|  40 | 15 |   0 |   0 | 1.924702e+04 | 2.302726e+04 |  19.64%| unknown
  4.3s|     1 |     0 |  3489 |     - |   130M |   0 |  10k|  10k|  10k|  43 | 16 |   0 |   0 | 1.924751e+04 | 2.302726e+04 |  19.64%| unknown
  4.5s|     1 |     0 |  3500 |     - |   131M |   0 |  10k|  10k|  10k|  45 | 17 |   0 |   0 | 1.924777e+04 | 2.302726e+04 |  19.64%| unknown
  4.6s|     1 |     0 |  3521 |     - |   132M |   0 |  10k|  10k|  10k|  48 | 18 |   0 |   0 | 1.924815e+04 | 2.302726e+04 |  19.63%| unknown
  4.7s|     1 |     0 |  3542 |     - |   133M |   0 |  10k|  10k|  10k|  50 | 19 |   0 |   0 | 1.924823e+04 | 2.302726e+04 |  19.63%| unknown
  4.8s|     1 |     0 |  3585 |     - |   135M |   0 |  10k|  10k|  10k|  51 | 20 |   0 |   0 | 1.924908e+04 | 2.302726e+04 |  19.63%| unknown
  5.0s|     1 |     0 |  3631 |     - |   136M |   0 |  10k|  10k|  10k|  54 | 21 |   0 |   0 | 1.924916e+04 | 2.302726e+04 |  19.63%| unknown
d 7.7s|     1 |     0 |  6943 |     - |farkasdi|   0 |  10k|  10k|  10k|   0 | 21 |   0 |   0 | 1.924916e+04 | 2.160317e+04 |  12.23%| unknown
d 7.8s|     1 |     0 |  7001 |     - |farkasdi|   0 |  10k|  10k|  10k|   0 | 21 |   0 |   0 | 1.924916e+04 | 2.022247e+04 |   5.06%| unknown
d 8.0s|     1 |     0 |  7330 |     - |farkasdi|   0 |  10k|  10k|  10k|   0 | 21 |   0 |   0 | 1.924916e+04 | 1.981943e+04 |   2.96%| unknown
d 8.4s|     1 |     0 |  7806 |     - |farkasdi|   0 |  10k|  10k|  10k|   0 | 21 |   0 |   0 | 1.924916e+04 | 1.968457e+04 |   2.26%| unknown
 time | node  | left  |LP iter|LP it/n|mem/heur|mdpt |vars |cons |rows |cuts |sepa|confs|strbr|  dualbound   | primalbound  |  gap   | compl. 
d 8.7s|     1 |     0 |  8132 |     - |farkasdi|   0 |  10k|  10k|  10k|   0 | 21 |   0 |   0 | 1.924916e+04 | 1.968434e+04 |   2.26%| unknown
d 9.0s|     1 |     0 |  8474 |     - |farkasdi|   0 |  10k|  10k|  10k|   0 | 21 |   0 |   0 | 1.924916e+04 | 1.968399e+04 |   2.26%| unknown
d 9.3s|     1 |     0 |  8721 |     - |farkasdi|   0 |  10k|  10k|  10k|   0 | 21 |   0 |   0 | 1.924916e+04 | 1.968370e+04 |   2.26%| unknown
d 9.7s|     1 |     0 |  9179 |     - |farkasdi|   0 |  10k|  10k|  10k|   0 | 21 |   0 |   0 | 1.924916e+04 | 1.968146e+04 |   2.25%| unknown
L11.7s|     1 |     0 |  9179 |     - |    rens|   0 |  10k|  10k|  10k|  54 | 21 |   0 |   0 | 1.924916e+04 | 1.931205e+04 |   0.33%| unknown
 12.2s|     1 |     0 |  9179 |     - |   141M |   0 |  10k|  10k|  10k|  54 | 21 |   0 |   0 | 1.924916e+04 | 1.931205e+04 |   0.33%| unknown
 12.3s|     1 |     0 |  9179 |     - |   144M |   0 |  10k|  10k|9951 |  54 | 21 |   0 |   0 | 1.924916e+04 | 1.931205e+04 |   0.33%| unknown
 12.4s|     1 |     0 |  9206 |     - |   144M |   0 |  10k|  10k|5008 |  57 | 22 |   0 |   0 | 1.924951e+04 | 1.931205e+04 |   0.32%| unknown
 12.4s|     1 |     0 |  9220 |     - |   144M |   0 |  10k|  10k|5009 |  58 | 23 |   0 |   0 | 1.924959e+04 | 1.931205e+04 |   0.32%| unknown
(run 1, node 1) restarting after 60 global fixings of integer variables

(restart) converted 50 cuts from the global cut pool into linear constraints

presolving:
(round 1, fast)       5760 del vars, 5 del conss, 0 add conss, 0 chg bounds, 0 chg sides, 0 chg coeffs, 0 upgd conss, 10000 impls, 0 clqs
   (12.6s) running MILP presolver
   (12.6s) MILP presolver found nothing
presolving (2 rounds: 2 fast, 1 medium, 1 exhaustive):
 5760 deleted vars, 5 deleted constraints, 0 added constraints, 0 tightened bounds, 0 added holes, 0 changed sides, 0 changed coefficients
 10000 implications, 0 cliques
presolved problem has 4340 variables (40 bin, 0 int, 0 impl, 4300 cont) and 4194 constraints
   4000 constraints of type <varbound>
      4 constraints of type <knapsack>
    190 constraints of type <linear>
Presolving Time: 0.70
transformed 26/36 original solutions to the transformed problem space

 time | node  | left  |LP iter|LP it/n|mem/heur|mdpt |vars |cons |rows |cuts |sepa|confs|strbr|  dualbound   | primalbound  |  gap   | compl. 
 13.1s|     1 |     0 | 10481 |     - |   149M |   0 |4340 |4194 |4194 |   0 |  0 |   0 |   0 | 1.924959e+04 | 1.931205e+04 |   0.32%| unknown
 13.1s|     1 |     0 | 10481 |     - |   149M |   0 |4340 |4194 |4194 |   0 |  0 |   0 |   0 | 1.924959e+04 | 1.931205e+04 |   0.32%| unknown
 13.2s|     1 |     0 | 10524 |     - |   150M |   0 |4340 |4194 |4010 |   3 |  1 |   0 |   0 | 1.925008e+04 | 1.931205e+04 |   0.32%| unknown
 13.4s|     1 |     0 | 10531 |     - |   151M |   0 |4340 |4194 |4011 |   4 |  2 |   0 |   0 | 1.925016e+04 | 1.931205e+04 |   0.32%| unknown
 13.5s|     1 |     0 | 10552 |     - |   151M |   0 |4340 |4194 |4014 |   7 |  3 |   0 |   0 | 1.925059e+04 | 1.931205e+04 |   0.32%| unknown
 13.7s|     1 |     0 | 10579 |     - |   151M |   0 |4340 |4194 |4016 |   9 |  4 |   0 |   0 | 1.925106e+04 | 1.931205e+04 |   0.32%| unknown
 13.8s|     1 |     0 | 10583 |     - |   152M |   0 |4340 |4194 |4018 |  11 |  5 |   0 |   0 | 1.925107e+04 | 1.931205e+04 |   0.32%| unknown
 13.9s|     1 |     0 | 10607 |     - |   152M |   0 |4340 |4194 |4020 |  13 |  6 |   0 |   0 | 1.925204e+04 | 1.931205e+04 |   0.31%| unknown
 14.0s|     1 |     0 | 10631 |     - |   153M |   0 |4340 |4194 |4022 |  15 |  7 |   0 |   0 | 1.925232e+04 | 1.931205e+04 |   0.31%| unknown
 14.2s|     1 |     0 | 10644 |     - |   153M |   0 |4340 |4194 |4025 |  18 |  8 |   0 |   0 | 1.925250e+04 | 1.931205e+04 |   0.31%| unknown
 14.4s|     1 |     0 | 10662 |     - |   154M |   0 |4340 |4194 |4027 |  20 |  9 |   0 |   0 | 1.925333e+04 | 1.931205e+04 |   0.30%| unknown
 14.5s|     1 |     0 | 10676 |     - |   154M |   0 |4340 |4194 |4029 |  22 | 10 |   0 |   0 | 1.925368e+04 | 1.931205e+04 |   0.30%| unknown
 14.6s|     1 |     0 | 10688 |     - |   155M |   0 |4340 |4194 |4031 |  24 | 11 |   0 |   0 | 1.925386e+04 | 1.931205e+04 |   0.30%| unknown
 16.4s|     1 |     0 | 11531 |     - |   159M |   0 |4340 |3891 |4031 |  24 | 11 |1547 |   6 | 1.925807e+04 | 1.931205e+04 |   0.28%| unknown
 16.6s|     1 |     0 | 11540 |     - |   159M |   0 |4340 |3891 |4033 |  26 | 12 |1547 |   6 | 1.925807e+04 | 1.931205e+04 |   0.28%| unknown
 time | node  | left  |LP iter|LP it/n|mem/heur|mdpt |vars |cons |rows |cuts |sepa|confs|strbr|  dualbound   | primalbound  |  gap   | compl. 
 16.8s|     1 |     2 | 11540 |     - |   160M |   0 |4340 |3891 |4033 |  26 | 13 |1547 |   8 | 1.926256e+04 | 1.931205e+04 |   0.26%| unknown
(run 2, node 1) restarting after 3 global fixings of integer variables

(restart) converted 25 cuts from the global cut pool into linear constraints

presolving:
(round 1, fast)       303 del vars, 0 del conss, 0 add conss, 0 chg bounds, 2 chg sides, 1408 chg coeffs, 0 upgd conss, 10000 impls, 0 clqs
presolving (2 rounds: 2 fast, 1 medium, 1 exhaustive):
 303 deleted vars, 0 deleted constraints, 0 added constraints, 0 tightened bounds, 0 added holes, 2 changed sides, 1408 changed coefficients
 10000 implications, 0 cliques
presolved problem has 4037 variables (37 bin, 0 int, 0 impl, 4000 cont) and 3916 constraints
   3700 constraints of type <varbound>
      5 constraints of type <knapsack>
    211 constraints of type <linear>
Presolving Time: 0.96
transformed 44/78 original solutions to the transformed problem space

 time | node  | left  |LP iter|LP it/n|mem/heur|mdpt |vars |cons |rows |cuts |sepa|confs|strbr|  dualbound   | primalbound  |  gap   | compl. 
 17.7s|     1 |     0 | 13215 |     - |   169M |   0 |4037 |3916 |3916 |   0 |  0 |1547 |   8 | 1.926256e+04 | 1.931205e+04 |   0.26%| unknown
 17.7s|     1 |     0 | 13215 |     - |   169M |   0 |4037 |3916 |3916 |   0 |  0 |1547 |   8 | 1.926256e+04 | 1.931205e+04 |   0.26%| unknown
 17.9s|     1 |     0 | 13255 |     - |   169M |   0 |4037 |3916 |3722 |   2 |  1 |1547 |   8 | 1.926256e+04 | 1.931205e+04 |   0.26%| unknown
 18.1s|     1 |     0 | 13297 |     - |   170M |   0 |4037 |3916 |3726 |   6 |  2 |1547 |   8 | 1.926256e+04 | 1.931205e+04 |   0.26%| unknown
 18.2s|     1 |     0 | 13317 |     - |   170M |   0 |4037 |3916 |3728 |   8 |  3 |1547 |   8 | 1.926256e+04 | 1.931205e+04 |   0.26%| unknown
 18.6s|     1 |     0 | 13361 |     - |   170M |   0 |4037 |3916 |3731 |  11 |  4 |1547 |   8 | 1.926256e+04 | 1.931205e+04 |   0.26%| unknown
 18.7s|     1 |     0 | 13367 |     - |   171M |   0 |4037 |3916 |3732 |  12 |  5 |1547 |   8 | 1.926256e+04 | 1.931205e+04 |   0.26%| unknown
 18.9s|     1 |     0 | 13390 |     - |   171M |   0 |4037 |3916 |3734 |  14 |  6 |1547 |   8 | 1.926256e+04 | 1.931205e+04 |   0.26%| unknown
 19.1s|     1 |     0 | 13415 |     - |   172M |   0 |4037 |3916 |3738 |  18 |  7 |1547 |   8 | 1.926256e+04 | 1.931205e+04 |   0.26%| unknown
 19.3s|     1 |     0 | 13423 |     - |   173M |   0 |4037 |3916 |3740 |  20 |  8 |1547 |   8 | 1.926256e+04 | 1.931205e+04 |   0.26%| unknown
 19.4s|     1 |     0 | 13437 |     - |   173M |   0 |4037 |3916 |3742 |  22 |  9 |1547 |   8 | 1.926256e+04 | 1.931205e+04 |   0.26%| unknown
 19.8s|     1 |     0 | 13455 |     - |   173M |   0 |4037 |3916 |3744 |  24 | 10 |1547 |   8 | 1.926256e+04 | 1.931205e+04 |   0.26%| unknown
 20.1s|     1 |     0 | 13470 |     - |   174M |   0 |4037 |3916 |3747 |  27 | 11 |1547 |   8 | 1.926256e+04 | 1.931205e+04 |   0.26%| unknown
 20.1s|     1 |     0 | 13470 |     - |   174M |   0 |4037 |3916 |3648 |  27 | 11 |1547 |   8 | 1.926256e+04 | 1.931205e+04 |   0.26%| unknown
 23.7s|     1 |     0 | 16072 |     - |   175M |   0 |4037 |3513 |3648 |  27 | 11 |3310 |  10 | 1.926366e+04 | 1.931205e+04 |   0.25%| unknown
 time | node  | left  |LP iter|LP it/n|mem/heur|mdpt |vars |cons |rows |cuts |sepa|confs|strbr|  dualbound   | primalbound  |  gap   | compl. 
 23.9s|     1 |     0 | 16082 |     - |   175M |   0 |4037 |3513 |3595 |  29 | 12 |3310 |  10 | 1.926366e+04 | 1.931205e+04 |   0.25%| unknown
 23.9s|     1 |     0 | 16114 |     - |   175M |   0 |4037 |3513 |3599 |  33 | 13 |3310 |  10 | 1.926366e+04 | 1.931205e+04 |   0.25%| unknown
 24.2s|     1 |     2 | 16114 |     - |   175M |   0 |4037 |3513 |3599 |  33 | 13 |3310 |  13 | 1.926366e+04 | 1.931205e+04 |   0.25%| unknown

SCIP Status        : problem is solved [optimal solution found]
Solving Time (sec) : 29.99
Solving Nodes      : 29 (total of 31 nodes in 3 runs)
Primal Bound       : +1.93120494372546e+04 (213 solutions)
Dual Bound         : +1.93120494372546e+04
Gap                : 0.00 %
Solve Status: optimal
Solve Time: 30.00 seconds
